7

0   6   6   2   25   12   19
6   0   5   16   17   3   18
6   5   0   12   16   25   12
2   16   12   0   8  23   2
25   17   16   8   0   1   3
12   3   25   23   1   0   16
19   18   12   2   3   16   0

0   68   24   73   21   44   5
68   0   60   9   47   50   73
24   60   0   65   13   20   27
73   9   65  0   52   55   78
21   47   13   52   0   33   26
44   50   20   55   33   0   47
5   73   27   78   26   47  0